(set-logic QF_LRA)
(declare-fun x1 () Real)
(declare-fun x2 () Real)
(declare-fun x3 () Real)
(declare-fun x4 () Real)
(declare-fun x5 () Real)
(declare-fun x6 () Real)
(declare-fun x7 () Real)
(declare-fun x8 () Real)
(declare-fun x9 () Real)
(declare-fun x10 () Real)

(assert (>= (- -9 ( + ( + (* -4 x3) (* -10 x1) ) (* -1 x2) )) 0))
(assert (>= (- -3 ( + ( + (* -3 x4) (* 3 x1) ) (* -1 x2) )) 0))
(assert (>= (- 9 ( + ( + (* -7 x4) (* -4 x1) ) (* -4 x5) )) 0))
(assert (>= (- -10 ( + ( + (* -4 x4) (* -5 x1) ) (* -9 x6) )) 0))
(assert (>= (- 2 ( + ( + (* -5 x1) (* -3 x6) ) (* -9 x7) )) 0))
(assert (>= (- -3 ( + ( + x7 (* -7 x1) ) (* -9 x8) )) 0))
(assert (>= (- -7 ( + ( + (* 6 x3) (* -2 x1) ) (* -5 x9) )) 0))
(assert (>= (- 9 ( + ( + (* 9 x10) (* -6 x1) ) (* -9 x7) )) 0))
(assert (>= (- 9 ( + (* 6 x3) (* 2 x1) )) 0))
(assert (>= (- -2 (* -10 x1)) 0))
(assert (>= (- 10 ( + (* -1 x2) (* -7 x1) )) 0))
(assert (>= (- 7 ( + ( + (* -6 x4) (* -2 x1) ) (* 7 x5) )) 0))
(assert (>= (- -4 (* -2 x10)) 0))
(assert (>= (- -2 (* -7 x2)) 0))
(assert (>= (- 10 ( + ( + (* 6 x4) (* -5 x1) ) (* 4 x5) )) 0))
(assert (>= (- 9 ( + (* -7 x1) (* -7 x3) )) 0))
(assert (>= (- 6 ( + ( + (* 9 x7) (* 9 x1) ) (* -5 x10) )) 0))
(assert (>= (- -9 ( + (* 7 x1) (* -6 x6) )) 0))
(assert (>= (- -3 ( + ( + (* -9 x1) (* -8 x7) ) (* -1 x8) )) 0))
(assert (>= (- -9 ( + ( + (* 7 x3) (* -9 x1) ) (* 4 x2) )) 0))
(check-sat)
(exit)